
Gurobi 12.0.2 (win64, gurobi_cl) logging started Mon Jul 14 19:12:58 2025

Set parameter Username
Set parameter LicenseID to value 2687873
Set parameter LogFile to value "gurobi.log"
Using license file C:\Users\ahmed\gurobi.lic
Academic license - for non-commercial use only - expires 2026-07-13
